N = 4;

ACTORES = { Actor1 , Actor2 , Actor3 , Actor4 };

M = 4;

Escenas =
[| 1 , 0 , 1 , 1 , 10
| 1 , 1 , 0 , 0 , 20
| 0 , 1 , 1 , 0 , 5
| 1 , 0 , 0 , 1 , 2|];

Duracion =
[ 2 , 3 , 1 , 2 ];

Maximo_tiempo_actores = 
[0, 5, 4, 4];

E = 1;

Actores_separados = 
[|3, 4|];

c_weight = 0.9;

t_weight = 0.1;